networks/zoo_148_2161/zoo_148_2161.txt
Number of groups: 86
Flow 41: {34 56} {56 130} 
Flow 45: {34 61} {61 135} 
Flow 58: {7 8} {8 6} {6 80} 
Flow 81: {34 29} {29 103} 
Flow 101: {32 49} {49 123} 
Flow 103: {51 125} 
Flow 105: {7 53} {53 127} 
Flow 111: {59 60} {60 134} 
Flow 113: {34 63} {63 137} 
Flow 116: {3 66} {66 140} 
Flow 161: {4 42} {42 24} {24 25} {25 99} 
Flow 212: {5 8} {8 7} {7 2} {2 68} {68 69} 
Flow 229: {6 51} {51 50} {50 124} 
Flow 282: {15 89} 
Flow 287: {22 20} 
Flow 322: {9 68} {68 2} {2 57} {57 58} 
Flow 345: {10 27} {27 15} {15 13} {13 87} 
Flow 356: {10 30} {30 34} {34 108} 
Flow 401: {12 11} {11 6} {6 8} {8 82} 
Flow 471: {15 16} {16 32} {32 106} 
Flow 563: {67 27} {27 9} {9 30} {30 31} {31 105} 
Flow 642: {50 1} {1 74} {74 148} 
Flow 647: {20 19} {19 50} {50 51} {51 6} 
Flow 653: {20 22} {22 23} {23 97} 
Flow 674: {21 50} {50 23} {23 24} {24 98} 
Flow 747: {24 26} {26 17} {17 91} 
Flow 749: {23 50} {50 19} {19 93} 
Flow 800: {25 24} {24 42} {42 116} 
Flow 807: {26 24} {24 23} {23 4} {4 2} {2 76} 
Flow 814: {17 18} {18 43} {43 117} 
Flow 838: {27 10} {10 40} {40 37} {37 111} 
Flow 860: {28 12} 
Flow 888: {12 28} {28 102} 
Flow 919: {40 38} {38 64} {64 138} 
Flow 933: {31 30} {30 9} {9 27} {27 67} {67 141} 
Flow 981: {30 10} {10 84} 
Flow 1003: {35 67} {67 4} {4 11} {11 12} {12 86} 
Flow 1042: {37 40} {40 10} 
Flow 1044: {13 14} {14 88} 
Flow 1045: {37 38} {38 68} {68 9} {9 16} {16 90} 
Flow 1056: {36 67} {67 18} {18 41} {41 44} 
Flow 1073: {11 85} 
Flow 1084: {2 4} {4 23} {23 22} {22 96} 
Flow 1098: {38 37} {37 36} {36 110} 
Flow 1109: {38 33} {33 35} {35 48} {48 122} 
Flow 1135: {39 38} {38 40} {40 30} {30 104} 
Flow 1194: {42 4} {4 3} {3 77} 
Flow 1197: {1 2} {2 7} {7 81} 
Flow 1322: {44 46} {46 43} {43 45} {45 47} {47 121} 
Flow 1324: {44 41} 
Flow 1368: {46 44} {44 118} 
Flow 1375: {45 43} {43 67} {67 68} {68 52} {52 126} 
Flow 1378: {18 42} {42 1} {1 59} {59 133} 
Flow 1388: {69 70} {70 71} {71 145} 
Flow 1432: {4 1} {1 50} {50 21} {21 95} 
Flow 1437: {43 18} {18 17} {17 26} {26 100} 
Flow 1444: {47 69} {69 67} {67 35} {35 33} {33 107} 
Flow 1450: {69 68} {68 38} {38 39} {39 113} 
Flow 1452: {41 115} 
Flow 1487: {33 38} {38 112} 
Flow 1493: {48 52} {52 68} {68 142} 
Flow 1500: {49 32} {32 16} {16 9} {9 83} 
Flow 1507: {49 14} {14 13} {13 15} {15 27} {27 101} 
Flow 1594: {6 11} {11 4} {4 67} {67 36} {36 37} 
Flow 1622: {52 48} {48 35} {35 109} 
Flow 1643: {53 7} 
Flow 1650: {54 58} {58 57} {57 2} {2 1} {1 75} 
Flow 1662: {55 12} {12 57} 
Flow 1674: {56 34} {34 30} {30 40} {40 114} 
Flow 1772: {60 58} {58 132} 
Flow 1780: {60 59} {59 1} {1 4} 
Flow 1782: {61 34} 
Flow 1801: {62 41} {41 18} {18 67} {67 69} {69 143} 
Flow 1804: {64 38} 
Flow 1812: {65 66} {66 3} {3 4} {4 78} 
Flow 1854: {66 65} {65 73} {73 147} 
Flow 1908: {57 131} 
Flow 1921: {71 72} {72 146} 
Flow 1942: {19 20} {20 94} 
Flow 1968: {68 67} {67 43} {43 46} {46 120} 
Flow 1976: {57 12} {12 55} {55 129} 
Flow 1983: {41 62} {62 136} 
Flow 2086: {72 73} {73 65} {65 139} 
Flow 2114: {73 74} {74 1} {1 42} {42 18} {18 92} 
Flow 2126: {70 69} {69 47} {47 45} {45 119} 
Flow 2160: {74 73} {73 72} {72 71} {71 70} {70 144} 
Time taken running everything: 601 seconds
