networks/zoo_148_2161/standard/zoo_148_2161.sol
<?xml version = "1.0" encoding="UTF-8" standalone="yes"?>
<CPLEXSolution version="1.2">
 <header
   problemName="networks/zoo_148_2161/zoo_148_2161.lp"
   solutionName="incumbent"
   solutionIndex="-1"
   objectiveValue="86"
   solutionTypeValue="3"
   solutionTypeString="primal"
   solutionStatusValue="101"
   solutionStatusString="integer optimal solution"
   solutionMethodString="mip"
   primalFeasible="1"
   dualFeasible="1"
   MIPNodes="1182"
   MIPIterations="779959"
   writeLevel="3"/>
 <quality
   epInt="1.0000000000000001e-05"
   epRHS="9.9999999999999995e-07"
   maxIntInfeas="0"
   maxPrimalInfeas="3.5527136788005009e-15"
   maxX="4"
   maxSlack="10"/>
 <variables>
  <variable name="Y(41,56)" index="5895" value="1"/>
  <variable name="Y(45,61)" index="6484" value="1"/>
  <variable name="Y(58,6)" index="8327" value="1"/>
  <variable name="Y(81,29)" index="11708" value="1"/>
  <variable name="Y(101,49)" index="14648" value="1"/>
  <variable name="Y(103,51)" index="14942" value="1"/>
  <variable name="Y(105,53)" index="15236" value="1"/>
  <variable name="Y(111,60)" index="16119" value="1"/>
  <variable name="Y(113,63)" index="16414" value="1"/>
  <variable name="Y(116,66)" index="16855" value="1"/>
  <variable name="Y(161,25)" index="23384" value="1"/>
  <variable name="Y(212,68)" index="30873" value="1"/>
  <variable name="Y(229,50)" index="33337" value="1"/>
  <variable name="Y(282,15)" index="41040" value="1"/>
  <variable name="Y(287,22)" index="41777" value="1"/>
  <variable name="Y(322,57)" index="46922" value="1"/>
  <variable name="Y(345,13)" index="50236" value="1"/>
  <variable name="Y(356,34)" index="51863" value="1"/>
  <variable name="Y(401,8)" index="58407" value="1"/>
  <variable name="Y(471,32)" index="68651" value="1"/>
  <variable name="Y(563,31)" index="82082" value="1"/>
  <variable name="Y(642,74)" index="93659" value="1"/>
  <variable name="Y(647,51)" index="94366" value="1"/>
  <variable name="Y(653,23)" index="95214" value="1"/>
  <variable name="Y(674,24)" index="98281" value="1"/>
  <variable name="Y(747,17)" index="108932" value="1"/>
  <variable name="Y(749,19)" index="109226" value="1"/>
  <variable name="Y(800,42)" index="116695" value="1"/>
  <variable name="Y(807,2)" index="117677" value="1"/>
  <variable name="Y(814,43)" index="118740" value="1"/>
  <variable name="Y(838,37)" index="122238" value="1"/>
  <variable name="Y(860,28)" index="125441" value="1"/>
  <variable name="Y(888,28)" index="129529" value="1"/>
  <variable name="Y(919,64)" index="134091" value="1"/>
  <variable name="Y(933,67)" index="136138" value="1"/>
  <variable name="Y(981,10)" index="143089" value="1"/>
  <variable name="Y(1003,12)" index="146303" value="1"/>
  <variable name="Y(1042,40)" index="152025" value="1"/>
  <variable name="Y(1044,14)" index="152291" value="1"/>
  <variable name="Y(1045,16)" index="152439" value="1"/>
  <variable name="Y(1056,41)" index="154070" value="1"/>
  <variable name="Y(1073,11)" index="156522" value="1"/>
  <variable name="Y(1084,22)" index="158139" value="1"/>
  <variable name="Y(1098,36)" index="160197" value="1"/>
  <variable name="Y(1109,48)" index="161815" value="1"/>
  <variable name="Y(1135,30)" index="165593" value="1"/>
  <variable name="Y(1194,3)" index="174180" value="1"/>
  <variable name="Y(1197,7)" index="174622" value="1"/>
  <variable name="Y(1322,47)" index="192912" value="1"/>
  <variable name="Y(1324,44)" index="193201" value="1"/>
  <variable name="Y(1368,44)" index="199625" value="1"/>
  <variable name="Y(1375,52)" index="200655" value="1"/>
  <variable name="Y(1378,59)" index="201100" value="1"/>
  <variable name="Y(1388,71)" index="202572" value="1"/>
  <variable name="Y(1432,21)" index="208946" value="1"/>
  <variable name="Y(1437,26)" index="209681" value="1"/>
  <variable name="Y(1444,33)" index="210710" value="1"/>
  <variable name="Y(1450,39)" index="211592" value="1"/>
  <variable name="Y(1452,41)" index="211886" value="1"/>
  <variable name="Y(1487,38)" index="216993" value="1"/>
  <variable name="Y(1493,68)" index="217899" value="1"/>
  <variable name="Y(1500,9)" index="218862" value="1"/>
  <variable name="Y(1507,27)" index="219902" value="1"/>
  <variable name="Y(1594,36)" index="232613" value="1"/>
  <variable name="Y(1622,35)" index="236700" value="1"/>
  <variable name="Y(1643,53)" index="239784" value="1"/>
  <variable name="Y(1650,1)" index="240754" value="1"/>
  <variable name="Y(1662,12)" index="242517" value="1"/>
  <variable name="Y(1674,40)" index="244297" value="1"/>
  <variable name="Y(1772,58)" index="258623" value="1"/>
  <variable name="Y(1780,1)" index="259734" value="1"/>
  <variable name="Y(1782,61)" index="260086" value="1"/>
  <variable name="Y(1801,69)" index="262868" value="1"/>
  <variable name="Y(1804,64)" index="263301" value="1"/>
  <variable name="Y(1812,4)" index="264409" value="1"/>
  <variable name="Y(1854,73)" index="270610" value="1"/>
  <variable name="Y(1908,57)" index="278478" value="1"/>
  <variable name="Y(1921,72)" index="280391" value="1"/>
  <variable name="Y(1942,20)" index="283405" value="1"/>
  <variable name="Y(1968,46)" index="287227" value="1"/>
  <variable name="Y(1976,55)" index="288404" value="1"/>
  <variable name="Y(1983,62)" index="289433" value="1"/>
  <variable name="Y(2086,65)" index="304474" value="1"/>
  <variable name="Y(2114,18)" index="308515" value="1"/>
  <variable name="Y(2126,45)" index="310294" value="1"/>
  <variable name="Y(2160,70)" index="315283" value="1"/>
  <variable name="X(1,2,1197)" index="316702" value="1"/>
  <variable name="X(1,4,1780)" index="319446" value="1"/>
  <variable name="X(1,42,2114)" index="321941" value="1"/>
  <variable name="X(1,50,1432)" index="323420" value="1"/>
  <variable name="X(1,59,1378)" index="325527" value="1"/>
  <variable name="X(1,74,642)" index="326952" value="1"/>
  <variable name="X(1,75,1650)" index="330121" value="1"/>
  <variable name="X(2,1,1650)" index="332282" value="1"/>
  <variable name="X(2,4,1084)" index="333877" value="1"/>
  <variable name="X(2,7,1197)" index="336151" value="1"/>
  <variable name="X(2,57,322)" index="337437" value="1"/>
  <variable name="X(2,68,212)" index="339488" value="1"/>
  <variable name="X(2,76,807)" index="342244" value="1"/>
  <variable name="X(3,4,1812)" index="345410" value="1"/>
  <variable name="X(3,66,116)" index="345875" value="1"/>
  <variable name="X(3,77,1194)" index="349114" value="1"/>
  <variable name="X(4,1,1432)" index="351513" value="1"/>
  <variable name="X(4,2,807)" index="353049" value="1"/>
  <variable name="X(4,3,1194)" index="355597" value="1"/>
  <variable name="X(4,11,1003)" index="357567" value="1"/>
  <variable name="X(4,23,1084)" index="359809" value="1"/>
  <variable name="X(4,42,161)" index="361047" value="1"/>
  <variable name="X(4,67,1594)" index="364641" value="1"/>
  <variable name="X(4,78,1812)" index="367020" value="1"/>
  <variable name="X(5,8,212)" index="367581" value="1"/>
  <variable name="X(6,8,401)" index="369931" value="1"/>
  <variable name="X(6,11,1594)" index="373285" value="1"/>
  <variable name="X(6,51,229)" index="374081" value="1"/>
  <variable name="X(6,80,58)" index="376071" value="1"/>
  <variable name="X(7,2,212)" index="378386" value="1"/>
  <variable name="X(7,8,58)" index="380393" value="1"/>
  <variable name="X(7,53,105)" index="382601" value="1"/>
  <variable name="X(7,81,1197)" index="385854" value="1"/>
  <variable name="X(8,6,58)" index="386876" value="1"/>
  <variable name="X(8,7,212)" index="389191" value="1"/>
  <variable name="X(8,82,401)" index="391541" value="1"/>
  <variable name="X(9,16,1045)" index="394346" value="1"/>
  <variable name="X(9,27,933)" index="396395" value="1"/>
  <variable name="X(9,30,563)" index="398186" value="1"/>
  <variable name="X(9,68,322)" index="400106" value="1"/>
  <variable name="X(9,83,1500)" index="403445" value="1"/>
  <variable name="X(10,27,345)" index="404451" value="1"/>
  <variable name="X(10,30,356)" index="406623" value="1"/>
  <variable name="X(10,40,838)" index="409266" value="1"/>
  <variable name="X(10,84,981)" index="411570" value="1"/>
  <variable name="X(11,4,1594)" index="414344" value="1"/>
  <variable name="X(11,6,401)" index="415312" value="1"/>
  <variable name="X(11,12,1003)" index="418075" value="1"/>
  <variable name="X(11,85,1073)" index="420306" value="1"/>
  <variable name="X(12,11,401)" index="421795" value="1"/>
  <variable name="X(12,28,888)" index="424443" value="1"/>
  <variable name="X(12,55,1976)" index="427692" value="1"/>
  <variable name="X(12,57,1662)" index="429539" value="1"/>
  <variable name="X(12,86,1003)" index="431041" value="1"/>
  <variable name="X(13,14,1044)" index="433243" value="1"/>
  <variable name="X(13,15,1507)" index="435867" value="1"/>
  <variable name="X(13,87,345)" index="436866" value="1"/>
  <variable name="X(14,13,1507)" index="440189" value="1"/>
  <variable name="X(14,88,1044)" index="441887" value="1"/>
  <variable name="X(15,13,345)" index="443349" value="1"/>
  <variable name="X(15,16,471)" index="445636" value="1"/>
  <variable name="X(15,27,1507)" index="448833" value="1"/>
  <variable name="X(15,89,282)" index="449769" value="1"/>
  <variable name="X(16,9,1500)" index="453148" value="1"/>
  <variable name="X(16,32,471)" index="454280" value="1"/>
  <variable name="X(16,90,1045)" index="457015" value="1"/>
  <variable name="X(17,18,814)" index="458945" value="1"/>
  <variable name="X(17,26,1437)" index="461729" value="1"/>
  <variable name="X(17,91,747)" index="463200" value="1"/>
  <variable name="X(18,17,1437)" index="466051" value="1"/>
  <variable name="X(18,41,1056)" index="467831" value="1"/>
  <variable name="X(18,42,1378)" index="470314" value="1"/>
  <variable name="X(18,43,814)" index="471911" value="1"/>
  <variable name="X(18,67,1801)" index="475059" value="1"/>
  <variable name="X(18,92,2114)" index="477533" value="1"/>
  <variable name="X(19,20,1942)" index="479522" value="1"/>
  <variable name="X(19,50,647)" index="480388" value="1"/>
  <variable name="X(19,93,749)" index="482651" value="1"/>
  <variable name="X(20,19,647)" index="484710" value="1"/>
  <variable name="X(20,22,653)" index="486877" value="1"/>
  <variable name="X(20,94,1942)" index="490327" value="1"/>
  <variable name="X(21,50,674)" index="491220" value="1"/>
  <variable name="X(21,95,1432)" index="494139" value="1"/>
  <variable name="X(22,20,287)" index="495155" value="1"/>
  <variable name="X(22,23,653)" index="497682" value="1"/>
  <variable name="X(22,96,1084)" index="500274" value="1"/>
  <variable name="X(23,4,807)" index="502158" value="1"/>
  <variable name="X(23,22,1084)" index="504596" value="1"/>
  <variable name="X(23,24,674)" index="506347" value="1"/>
  <variable name="X(23,50,749)" index="508583" value="1"/>
  <variable name="X(23,97,653)" index="510648" value="1"/>
  <variable name="X(24,23,807)" index="512963" value="1"/>
  <variable name="X(24,25,161)" index="514478" value="1"/>
  <variable name="X(24,26,747)" index="517225" value="1"/>
  <variable name="X(24,42,800)" index="519439" value="1"/>
  <variable name="X(24,98,674)" index="521474" value="1"/>
  <variable name="X(25,24,800)" index="523761" value="1"/>
  <variable name="X(25,99,161)" index="525283" value="1"/>
  <variable name="X(26,17,747)" index="528030" value="1"/>
  <variable name="X(26,24,807)" index="530251" value="1"/>
  <variable name="X(26,100,1437)" index="533042" value="1"/>
  <variable name="X(27,9,563)" index="534329" value="1"/>
  <variable name="X(27,10,838)" index="536765" value="1"/>
  <variable name="X(27,15,345)" index="538433" value="1"/>
  <variable name="X(27,67,933)" index="541182" value="1"/>
  <variable name="X(27,101,1507)" index="543917" value="1"/>
  <variable name="X(28,12,860)" index="545431" value="1"/>
  <variable name="X(28,102,888)" index="547620" value="1"/>
  <variable name="X(29,103,81)" index="548974" value="1"/>
  <variable name="X(30,9,933)" index="551987" value="1"/>
  <variable name="X(30,10,981)" index="554196" value="1"/>
  <variable name="X(30,31,563)" index="555939" value="1"/>
  <variable name="X(30,34,356)" index="557893" value="1"/>
  <variable name="X(30,40,1674)" index="561372" value="1"/>
  <variable name="X(30,104,1135)" index="562994" value="1"/>
  <variable name="X(31,30,933)" index="564953" value="1"/>
  <variable name="X(31,105,563)" index="566744" value="1"/>
  <variable name="X(32,16,1500)" index="569842" value="1"/>
  <variable name="X(32,49,101)" index="570604" value="1"/>
  <variable name="X(32,106,471)" index="573135" value="1"/>
  <variable name="X(33,35,1109)" index="575934" value="1"/>
  <variable name="X(33,38,1487)" index="578473" value="1"/>
  <variable name="X(33,107,1444)" index="580591" value="1"/>
  <variable name="X(34,29,81)" index="581389" value="1"/>
  <variable name="X(34,30,1674)" index="585143" value="1"/>
  <variable name="X(34,56,41)" index="585671" value="1"/>
  <variable name="X(34,61,45)" index="587836" value="1"/>
  <variable name="X(34,63,113)" index="590065" value="1"/>
  <variable name="X(34,108,356)" index="592469" value="1"/>
  <variable name="X(35,33,1444)" index="595718" value="1"/>
  <variable name="X(35,48,1109)" index="597544" value="1"/>
  <variable name="X(35,67,1003)" index="599599" value="1"/>
  <variable name="X(35,109,1622)" index="602379" value="1"/>
  <variable name="X(36,37,1594)" index="604512" value="1"/>
  <variable name="X(36,67,1056)" index="606135" value="1"/>
  <variable name="X(36,110,1098)" index="608338" value="1"/>
  <variable name="X(37,36,1098)" index="610499" value="1"/>
  <variable name="X(37,38,1045)" index="612607" value="1"/>
  <variable name="X(37,40,1042)" index="614765" value="1"/>
  <variable name="X(37,111,838)" index="616722" value="1"/>
  <variable name="X(38,33,1109)" index="619154" value="1"/>
  <variable name="X(38,37,1098)" index="621304" value="1"/>
  <variable name="X(38,39,1450)" index="623817" value="1"/>
  <variable name="X(38,40,1135)" index="625663" value="1"/>
  <variable name="X(38,64,919)" index="627608" value="1"/>
  <variable name="X(38,68,1045)" index="629895" value="1"/>
  <variable name="X(38,112,1487)" index="632498" value="1"/>
  <variable name="X(39,38,1135)" index="634307" value="1"/>
  <variable name="X(39,113,1450)" index="636783" value="1"/>
  <variable name="X(40,10,1042)" index="638536" value="1"/>
  <variable name="X(40,30,1135)" index="640790" value="1"/>
  <variable name="X(40,37,838)" index="642654" value="1"/>
  <variable name="X(40,38,919)" index="644896" value="1"/>
  <variable name="X(40,114,1674)" index="647812" value="1"/>
  <variable name="X(41,18,1801)" index="650100" value="1"/>
  <variable name="X(41,44,1056)" index="651516" value="1"/>
  <variable name="X(41,62,1983)" index="654604" value="1"/>
  <variable name="X(41,115,1452)" index="656234" value="1"/>
  <variable name="X(42,1,1378)" index="658321" value="1"/>
  <variable name="X(42,4,1194)" index="660298" value="1"/>
  <variable name="X(42,18,2114)" index="663379" value="1"/>
  <variable name="X(42,24,161)" index="663587" value="1"/>
  <variable name="X(42,116,800)" index="666387" value="1"/>
  <variable name="X(43,18,1437)" index="669185" value="1"/>
  <variable name="X(43,45,1322)" index="671231" value="1"/>
  <variable name="X(43,46,1968)" index="674038" value="1"/>
  <variable name="X(43,67,1375)" index="675606" value="1"/>
  <variable name="X(43,117,814)" index="677206" value="1"/>
  <variable name="X(44,41,1324)" index="679877" value="1"/>
  <variable name="X(44,46,1322)" index="682036" value="1"/>
  <variable name="X(44,118,1368)" index="684243" value="1"/>
  <variable name="X(45,43,1375)" index="686411" value="1"/>
  <variable name="X(45,47,1322)" index="688519" value="1"/>
  <variable name="X(45,119,2126)" index="691484" value="1"/>
  <variable name="X(46,43,1322)" index="692841" value="1"/>
  <variable name="X(46,44,1368)" index="695048" value="1"/>
  <variable name="X(46,120,1968)" index="697809" value="1"/>
  <variable name="X(47,45,2126)" index="700128" value="1"/>
  <variable name="X(47,69,1444)" index="701607" value="1"/>
  <variable name="X(47,121,1322)" index="703646" value="1"/>
  <variable name="X(48,35,1622)" index="706107" value="1"/>
  <variable name="X(48,52,1493)" index="708139" value="1"/>
  <variable name="X(48,122,1109)" index="709916" value="1"/>
  <variable name="X(49,14,1507)" index="712475" value="1"/>
  <variable name="X(49,32,1500)" index="714629" value="1"/>
  <variable name="X(49,123,101)" index="715391" value="1"/>
  <variable name="X(50,1,642)" index="718093" value="1"/>
  <variable name="X(50,19,749)" index="720361" value="1"/>
  <variable name="X(50,21,1432)" index="723205" value="1"/>
  <variable name="X(50,23,674)" index="724608" value="1"/>
  <variable name="X(50,51,647)" index="726742" value="1"/>
  <variable name="X(50,124,229)" index="728485" value="1"/>
  <variable name="X(51,6,647)" index="731064" value="1"/>
  <variable name="X(51,50,229)" index="732807" value="1"/>
  <variable name="X(51,125,103)" index="734842" value="1"/>
  <variable name="X(52,48,1622)" index="738522" value="1"/>
  <variable name="X(52,68,1493)" index="740554" value="1"/>
  <variable name="X(52,126,1375)" index="742597" value="1"/>
  <variable name="X(53,7,1643)" index="745026" value="1"/>
  <variable name="X(53,127,105)" index="745649" value="1"/>
  <variable name="X(54,58,1650)" index="749355" value="1"/>
  <variable name="X(55,12,1662)" index="751528" value="1"/>
  <variable name="X(55,129,1976)" index="754003" value="1"/>
  <variable name="X(56,34,1674)" index="755862" value="1"/>
  <variable name="X(56,130,41)" index="756390" value="1"/>
  <variable name="X(57,2,1650)" index="760160" value="1"/>
  <variable name="X(57,12,1976)" index="762647" value="1"/>
  <variable name="X(57,58,322)" index="763154" value="1"/>
  <variable name="X(57,131,1908)" index="766901" value="1"/>
  <variable name="X(58,57,1650)" index="768804" value="1"/>
  <variable name="X(58,132,1772)" index="771087" value="1"/>
  <variable name="X(59,1,1780)" index="773256" value="1"/>
  <variable name="X(59,60,111)" index="773748" value="1"/>
  <variable name="X(59,133,1378)" index="777176" value="1"/>
  <variable name="X(60,58,1772)" index="779731" value="1"/>
  <variable name="X(60,59,1780)" index="781900" value="1"/>
  <variable name="X(60,134,111)" index="782392" value="1"/>
  <variable name="X(61,34,1782)" index="786224" value="1"/>
  <variable name="X(61,135,45)" index="786648" value="1"/>
  <variable name="X(62,41,1801)" index="790565" value="1"/>
  <variable name="X(62,136,1983)" index="792908" value="1"/>
  <variable name="X(63,137,113)" index="793199" value="1"/>
  <variable name="X(64,38,1804)" index="797051" value="1"/>
  <variable name="X(64,138,919)" index="798327" value="1"/>
  <variable name="X(65,66,1812)" index="801381" value="1"/>
  <variable name="X(65,73,1854)" index="803584" value="1"/>
  <variable name="X(65,139,2086)" index="805977" value="1"/>
  <variable name="X(66,3,1812)" index="807864" value="1"/>
  <variable name="X(66,65,1854)" index="810067" value="1"/>
  <variable name="X(66,140,116)" index="810490" value="1"/>
  <variable name="X(67,4,1003)" index="813538" value="1"/>
  <variable name="X(67,18,1056)" index="815752" value="1"/>
  <variable name="X(67,27,563)" index="817420" value="1"/>
  <variable name="X(67,35,1444)" index="820462" value="1"/>
  <variable name="X(67,36,1594)" index="822773" value="1"/>
  <variable name="X(67,43,1968)" index="825308" value="1"/>
  <variable name="X(67,68,1375)" index="826876" value="1"/>
  <variable name="X(67,69,1801)" index="829463" value="1"/>
  <variable name="X(67,141,933)" index="830756" value="1"/>
  <variable name="X(68,2,322)" index="832306" value="1"/>
  <variable name="X(68,9,1045)" index="835190" value="1"/>
  <variable name="X(68,38,1450)" index="837756" value="1"/>
  <variable name="X(68,52,1375)" index="839842" value="1"/>
  <variable name="X(68,67,1968)" index="842596" value="1"/>
  <variable name="X(68,69,212)" index="843001" value="1"/>
  <variable name="X(68,142,1493)" index="846443" value="1"/>
  <variable name="X(69,47,2126)" index="849237" value="1"/>
  <variable name="X(69,67,1444)" index="850716" value="1"/>
  <variable name="X(69,68,1450)" index="852883" value="1"/>
  <variable name="X(69,70,1388)" index="854982" value="1"/>
  <variable name="X(69,143,1801)" index="857556" value="1"/>
  <variable name="X(70,69,2126)" index="860042" value="1"/>
  <variable name="X(70,71,1388)" index="861465" value="1"/>
  <variable name="X(70,144,2160)" index="864398" value="1"/>
  <variable name="X(71,70,2160)" index="866559" value="1"/>
  <variable name="X(71,72,1921)" index="868481" value="1"/>
  <variable name="X(71,145,1388)" index="870109" value="1"/>
  <variable name="X(72,71,2160)" index="873042" value="1"/>
  <variable name="X(72,73,2086)" index="875129" value="1"/>
  <variable name="X(72,146,1921)" index="877125" value="1"/>
  <variable name="X(73,65,2086)" index="879451" value="1"/>
  <variable name="X(73,72,2160)" index="881686" value="1"/>
  <variable name="X(73,74,2114)" index="883801" value="1"/>
  <variable name="X(73,147,1854)" index="885702" value="1"/>
  <variable name="X(74,1,2114)" index="888123" value="1"/>
  <variable name="X(74,73,2160)" index="890330" value="1"/>
  <variable name="X(74,148,642)" index="890973" value="1"/>
  <variable name="C(41,56)" index="892665" value="1"/>
  <variable name="C(45,61)" index="892681" value="1"/>
  <variable name="C(58,8)" index="892724" value="1"/>
  <variable name="C(58,6)" index="892725" value="2"/>
  <variable name="C(81,29)" index="892823" value="1"/>
  <variable name="C(101,49)" index="892911" value="1"/>
  <variable name="C(105,53)" index="892924" value="1"/>
  <variable name="C(111,60)" index="892946" value="1"/>
  <variable name="C(113,63)" index="892958" value="1"/>
  <variable name="C(116,66)" index="892971" value="1"/>
  <variable name="C(161,42)" index="893135" value="1"/>
  <variable name="C(161,24)" index="893136" value="2"/>
  <variable name="C(161,25)" index="893137" value="3"/>
  <variable name="C(212,8)" index="893356" value="1"/>
  <variable name="C(212,7)" index="893357" value="2"/>
  <variable name="C(212,2)" index="893358" value="3"/>
  <variable name="C(212,68)" index="893359" value="4"/>
  <variable name="C(229,51)" index="893446" value="1"/>
  <variable name="C(229,50)" index="893447" value="2"/>
  <variable name="C(322,68)" index="893860" value="1"/>
  <variable name="C(322,2)" index="893861" value="2"/>
  <variable name="C(322,57)" index="893862" value="3"/>
  <variable name="C(345,27)" index="893970" value="1"/>
  <variable name="C(345,15)" index="893971" value="2"/>
  <variable name="C(345,13)" index="893972" value="3"/>
  <variable name="C(356,30)" index="894020" value="1"/>
  <variable name="C(356,34)" index="894021" value="2"/>
  <variable name="C(401,11)" index="894218" value="1"/>
  <variable name="C(401,6)" index="894219" value="2"/>
  <variable name="C(401,8)" index="894220" value="3"/>
  <variable name="C(471,16)" index="894609" value="1"/>
  <variable name="C(471,32)" index="894610" value="2"/>
  <variable name="C(563,27)" index="895042" value="1"/>
  <variable name="C(563,9)" index="895043" value="2"/>
  <variable name="C(563,30)" index="895044" value="3"/>
  <variable name="C(563,31)" index="895045" value="4"/>
  <variable name="C(642,1)" index="895438" value="1"/>
  <variable name="C(642,74)" index="895439" value="2"/>
  <variable name="C(647,19)" index="895459" value="1"/>
  <variable name="C(647,50)" index="895460" value="2"/>
  <variable name="C(647,51)" index="895461" value="3"/>
  <variable name="C(653,22)" index="895499" value="1"/>
  <variable name="C(653,23)" index="895500" value="2"/>
  <variable name="C(674,21)" index="895616" value="1"/>
  <variable name="C(674,50)" index="895617" value="2"/>
  <variable name="C(674,23)" index="895618" value="3"/>
  <variable name="C(674,24)" index="895619" value="4"/>
  <variable name="C(747,26)" index="895969" value="1"/>
  <variable name="C(747,17)" index="895970" value="2"/>
  <variable name="C(749,50)" index="895976" value="1"/>
  <variable name="C(749,19)" index="895977" value="2"/>
  <variable name="C(800,24)" index="896249" value="1"/>
  <variable name="C(800,42)" index="896250" value="2"/>
  <variable name="C(807,24)" index="896285" value="1"/>
  <variable name="C(807,23)" index="896286" value="2"/>
  <variable name="C(807,4)" index="896287" value="3"/>
  <variable name="C(807,2)" index="896288" value="4"/>
  <variable name="C(814,18)" index="896319" value="1"/>
  <variable name="C(814,43)" index="896320" value="2"/>
  <variable name="C(838,10)" index="896414" value="1"/>
  <variable name="C(838,40)" index="896415" value="2"/>
  <variable name="C(838,37)" index="896416" value="3"/>
  <variable name="C(888,28)" index="896666" value="1"/>
  <variable name="C(919,38)" index="896807" value="1"/>
  <variable name="C(919,64)" index="896808" value="2"/>
  <variable name="C(933,30)" index="896884" value="1"/>
  <variable name="C(933,9)" index="896885" value="2"/>
  <variable name="C(933,27)" index="896886" value="3"/>
  <variable name="C(933,67)" index="896887" value="4"/>
  <variable name="C(981,10)" index="897133" value="1"/>
  <variable name="C(1003,67)" index="897245" value="1"/>
  <variable name="C(1003,4)" index="897246" value="2"/>
  <variable name="C(1003,11)" index="897247" value="3"/>
  <variable name="C(1003,12)" index="897248" value="4"/>
  <variable name="C(1042,40)" index="897398" value="1"/>
  <variable name="C(1044,14)" index="897412" value="1"/>
  <variable name="C(1045,38)" index="897414" value="1"/>
  <variable name="C(1045,68)" index="897415" value="2"/>
  <variable name="C(1045,9)" index="897416" value="3.0000000000000009"/>
  <variable name="C(1045,16)" index="897417" value="4"/>
  <variable name="C(1056,67)" index="897459" value="1"/>
  <variable name="C(1056,18)" index="897460" value="2"/>
  <variable name="C(1056,41)" index="897461" value="3"/>
  <variable name="C(1084,4)" index="897596" value="1"/>
  <variable name="C(1084,23)" index="897597" value="2"/>
  <variable name="C(1084,22)" index="897598" value="3"/>
  <variable name="C(1098,37)" index="897660" value="1"/>
  <variable name="C(1098,36)" index="897661" value="2"/>
  <variable name="C(1109,33)" index="897703" value="1"/>
  <variable name="C(1109,35)" index="897704" value="2"/>
  <variable name="C(1109,48)" index="897705" value="3"/>
  <variable name="C(1135,38)" index="897826" value="1"/>
  <variable name="C(1135,40)" index="897827" value="2"/>
  <variable name="C(1135,30)" index="897828" value="3"/>
  <variable name="C(1194,4)" index="898092" value="1"/>
  <variable name="C(1194,3)" index="898093" value="2"/>
  <variable name="C(1197,2)" index="898102" value="1"/>
  <variable name="C(1197,7)" index="898103" value="2"/>
  <variable name="C(1322,46)" index="898684" value="1"/>
  <variable name="C(1322,43)" index="898685" value="2.0000000000000009"/>
  <variable name="C(1322,45)" index="898686" value="3"/>
  <variable name="C(1322,47)" index="898687" value="4"/>
  <variable name="C(1368,44)" index="898934" value="1"/>
  <variable name="C(1375,43)" index="898967" value="1"/>
  <variable name="C(1375,67)" index="898968" value="2"/>
  <variable name="C(1375,68)" index="898969" value="3"/>
  <variable name="C(1375,52)" index="898970" value="4"/>
  <variable name="C(1378,42)" index="898989" value="1"/>
  <variable name="C(1378,1)" index="898990" value="2"/>
  <variable name="C(1378,59)" index="898991" value="3"/>
  <variable name="C(1388,70)" index="899045" value="1"/>
  <variable name="C(1388,71)" index="899046" value="2"/>
  <variable name="C(1432,1)" index="899266" value="1"/>
  <variable name="C(1432,50)" index="899267" value="2"/>
  <variable name="C(1432,21)" index="899268" value="3"/>
  <variable name="C(1437,18)" index="899296" value="1"/>
  <variable name="C(1437,17)" index="899297" value="2"/>
  <variable name="C(1437,26)" index="899298" value="3"/>
  <variable name="C(1444,69)" index="899335" value="1"/>
  <variable name="C(1444,67)" index="899336" value="2"/>
  <variable name="C(1444,35)" index="899337" value="3"/>
  <variable name="C(1444,33)" index="899338" value="4"/>
  <variable name="C(1450,68)" index="899364" value="1"/>
  <variable name="C(1450,38)" index="899365" value="2"/>
  <variable name="C(1450,39)" index="899366" value="3"/>
  <variable name="C(1487,38)" index="899552" value="1"/>
  <variable name="C(1493,52)" index="899576" value="1"/>
  <variable name="C(1493,68)" index="899577" value="2"/>
  <variable name="C(1500,32)" index="899620" value="1"/>
  <variable name="C(1500,16)" index="899621" value="2"/>
  <variable name="C(1500,9)" index="899622" value="3"/>
  <variable name="C(1507,14)" index="899665" value="1"/>
  <variable name="C(1507,13)" index="899666" value="2"/>
  <variable name="C(1507,15)" index="899667" value="3"/>
  <variable name="C(1507,27)" index="899668" value="4"/>
  <variable name="C(1594,11)" index="900120" value="1"/>
  <variable name="C(1594,4)" index="900121" value="2"/>
  <variable name="C(1594,67)" index="900122" value="3"/>
  <variable name="C(1594,36)" index="900123" value="4"/>
  <variable name="C(1622,48)" index="900262" value="1"/>
  <variable name="C(1622,35)" index="900263" value="2"/>
  <variable name="C(1650,58)" index="900387" value="1"/>
  <variable name="C(1650,57)" index="900388" value="1.9999999999999996"/>
  <variable name="C(1650,2)" index="900389" value="2.9999999999999996"/>
  <variable name="C(1650,1)" index="900390" value="3.9999999999999996"/>
  <variable name="C(1662,12)" index="900452" value="1"/>
  <variable name="C(1674,34)" index="900524" value="1"/>
  <variable name="C(1674,30)" index="900525" value="2"/>
  <variable name="C(1674,40)" index="900526" value="3"/>
  <variable name="C(1772,58)" index="901017" value="1"/>
  <variable name="C(1780,59)" index="901050" value="1"/>
  <variable name="C(1780,1)" index="901051" value="2"/>
  <variable name="C(1801,41)" index="901170" value="1"/>
  <variable name="C(1801,18)" index="901171" value="2"/>
  <variable name="C(1801,67)" index="901172" value="3"/>
  <variable name="C(1801,69)" index="901173" value="4"/>
  <variable name="C(1812,66)" index="901220" value="1"/>
  <variable name="C(1812,3)" index="901221" value="2"/>
  <variable name="C(1812,4)" index="901222" value="3"/>
  <variable name="C(1854,65)" index="901452" value="1"/>
  <variable name="C(1854,73)" index="901453" value="2"/>
  <variable name="C(1921,72)" index="901711" value="1"/>
  <variable name="C(1942,20)" index="901794" value="1"/>
  <variable name="C(1968,67)" index="901894" value="1"/>
  <variable name="C(1968,43)" index="901895" value="2"/>
  <variable name="C(1968,46)" index="901896" value="3"/>
  <variable name="C(1976,12)" index="901926" value="1"/>
  <variable name="C(1976,55)" index="901927" value="2"/>
  <variable name="C(1983,62)" index="901958" value="1"/>
  <variable name="C(2086,73)" index="902428" value="1"/>
  <variable name="C(2086,65)" index="902429" value="2"/>
  <variable name="C(2114,74)" index="902565" value="1"/>
  <variable name="C(2114,1)" index="902566" value="2"/>
  <variable name="C(2114,42)" index="902567" value="3"/>
  <variable name="C(2114,18)" index="902568" value="4"/>
  <variable name="C(2126,69)" index="902639" value="1"/>
  <variable name="C(2126,47)" index="902640" value="2"/>
  <variable name="C(2126,45)" index="902641" value="3"/>
  <variable name="C(2160,73)" index="902803" value="1.000000000000004"/>
  <variable name="C(2160,72)" index="902804" value="2"/>
  <variable name="C(2160,71)" index="902805" value="3"/>
  <variable name="C(2160,70)" index="902806" value="4"/>
 </variables>
</CPLEXSolution>
